units		metal
atom_style charge
boundary	p p p
read_data data.dump
mass 1 95.94
pair_style snap
pair_coeff * * ../data/Mo.snapcoeff Mo ../data/Mo.snapparam Mo
# Setup neighbor style
neighbor 1.0 nsq
neigh_modify once no every 1 delay 0 check yes
compute forces all property/atom fx fy fz
dump 1 all custom 1 force.data c_forces[1] c_forces[2] c_forces[3]
dump_modify 1 sort id
run 0 
