Mo250
1.0
15.841511 0.000000 0.000000
0.000000 15.841511 0.000000
0.000000 0.000000 15.841511
Mo
250
direct
0.000000 0.000000 0.000000 Mo
0.000000 0.000000 0.200000 Mo
0.000000 0.000000 0.400000 Mo
0.000000 0.000000 0.600000 Mo
0.000000 0.000000 0.800000 Mo
0.000000 0.200000 0.000000 Mo
0.000000 0.200000 0.200000 Mo
0.000000 0.200000 0.400000 Mo
0.000000 0.200000 0.600000 Mo
0.000000 0.200000 0.800000 Mo
0.000000 0.400000 0.000000 Mo
0.000000 0.400000 0.200000 Mo
0.000000 0.400000 0.400000 Mo
0.000000 0.400000 0.600000 Mo
0.000000 0.400000 0.800000 Mo
0.000000 0.600000 0.000000 Mo
0.000000 0.600000 0.200000 Mo
0.000000 0.600000 0.400000 Mo
0.000000 0.600000 0.600000 Mo
0.000000 0.600000 0.800000 Mo
0.000000 0.800000 0.000000 Mo
0.000000 0.800000 0.200000 Mo
0.000000 0.800000 0.400000 Mo
0.000000 0.800000 0.600000 Mo
0.000000 0.800000 0.800000 Mo
0.200000 0.000000 0.000000 Mo
0.200000 0.000000 0.200000 Mo
0.200000 0.000000 0.400000 Mo
0.200000 0.000000 0.600000 Mo
0.200000 0.000000 0.800000 Mo
0.200000 0.200000 0.000000 Mo
0.200000 0.200000 0.200000 Mo
0.200000 0.200000 0.400000 Mo
0.200000 0.200000 0.600000 Mo
0.200000 0.200000 0.800000 Mo
0.200000 0.400000 0.000000 Mo
0.200000 0.400000 0.200000 Mo
0.200000 0.400000 0.400000 Mo
0.200000 0.400000 0.600000 Mo
0.200000 0.400000 0.800000 Mo
0.200000 0.600000 0.000000 Mo
0.200000 0.600000 0.200000 Mo
0.200000 0.600000 0.400000 Mo
0.200000 0.600000 0.600000 Mo
0.200000 0.600000 0.800000 Mo
0.200000 0.800000 0.000000 Mo
0.200000 0.800000 0.200000 Mo
0.200000 0.800000 0.400000 Mo
0.200000 0.800000 0.600000 Mo
0.200000 0.800000 0.800000 Mo
0.400000 0.000000 0.000000 Mo
0.400000 0.000000 0.200000 Mo
0.400000 0.000000 0.400000 Mo
0.400000 0.000000 0.600000 Mo
0.400000 0.000000 0.800000 Mo
0.400000 0.200000 0.000000 Mo
0.400000 0.200000 0.200000 Mo
0.400000 0.200000 0.400000 Mo
0.400000 0.200000 0.600000 Mo
0.400000 0.200000 0.800000 Mo
0.400000 0.400000 0.000000 Mo
0.400000 0.400000 0.200000 Mo
0.400000 0.400000 0.400000 Mo
0.400000 0.400000 0.600000 Mo
0.400000 0.400000 0.800000 Mo
0.400000 0.600000 0.000000 Mo
0.400000 0.600000 0.200000 Mo
0.400000 0.600000 0.400000 Mo
0.400000 0.600000 0.600000 Mo
0.400000 0.600000 0.800000 Mo
0.400000 0.800000 0.000000 Mo
0.400000 0.800000 0.200000 Mo
0.400000 0.800000 0.400000 Mo
0.400000 0.800000 0.600000 Mo
0.400000 0.800000 0.800000 Mo
0.600000 0.000000 0.000000 Mo
0.600000 0.000000 0.200000 Mo
0.600000 0.000000 0.400000 Mo
0.600000 0.000000 0.600000 Mo
0.600000 0.000000 0.800000 Mo
0.600000 0.200000 0.000000 Mo
0.600000 0.200000 0.200000 Mo
0.600000 0.200000 0.400000 Mo
0.600000 0.200000 0.600000 Mo
0.600000 0.200000 0.800000 Mo
0.600000 0.400000 0.000000 Mo
0.600000 0.400000 0.200000 Mo
0.600000 0.400000 0.400000 Mo
0.600000 0.400000 0.600000 Mo
0.600000 0.400000 0.800000 Mo
0.600000 0.600000 0.000000 Mo
0.600000 0.600000 0.200000 Mo
0.600000 0.600000 0.400000 Mo
0.600000 0.600000 0.600000 Mo
0.600000 0.600000 0.800000 Mo
0.600000 0.800000 0.000000 Mo
0.600000 0.800000 0.200000 Mo
0.600000 0.800000 0.400000 Mo
0.600000 0.800000 0.600000 Mo
0.600000 0.800000 0.800000 Mo
0.800000 0.000000 0.000000 Mo
0.800000 0.000000 0.200000 Mo
0.800000 0.000000 0.400000 Mo
0.800000 0.000000 0.600000 Mo
0.800000 0.000000 0.800000 Mo
0.800000 0.200000 0.000000 Mo
0.800000 0.200000 0.200000 Mo
0.800000 0.200000 0.400000 Mo
0.800000 0.200000 0.600000 Mo
0.800000 0.200000 0.800000 Mo
0.800000 0.400000 0.000000 Mo
0.800000 0.400000 0.200000 Mo
0.800000 0.400000 0.400000 Mo
0.800000 0.400000 0.600000 Mo
0.800000 0.400000 0.800000 Mo
0.800000 0.600000 0.000000 Mo
0.800000 0.600000 0.200000 Mo
0.800000 0.600000 0.400000 Mo
0.800000 0.600000 0.600000 Mo
0.800000 0.600000 0.800000 Mo
0.800000 0.800000 0.000000 Mo
0.800000 0.800000 0.200000 Mo
0.800000 0.800000 0.400000 Mo
0.800000 0.800000 0.600000 Mo
0.800000 0.800000 0.800000 Mo
0.100000 0.100000 0.100000 Mo
0.100000 0.100000 0.300000 Mo
0.100000 0.100000 0.500000 Mo
0.100000 0.100000 0.700000 Mo
0.100000 0.100000 0.900000 Mo
0.100000 0.300000 0.100000 Mo
0.100000 0.300000 0.300000 Mo
0.100000 0.300000 0.500000 Mo
0.100000 0.300000 0.700000 Mo
0.100000 0.300000 0.900000 Mo
0.100000 0.500000 0.100000 Mo
0.100000 0.500000 0.300000 Mo
0.100000 0.500000 0.500000 Mo
0.100000 0.500000 0.700000 Mo
0.100000 0.500000 0.900000 Mo
0.100000 0.700000 0.100000 Mo
0.100000 0.700000 0.300000 Mo
0.100000 0.700000 0.500000 Mo
0.100000 0.700000 0.700000 Mo
0.100000 0.700000 0.900000 Mo
0.100000 0.900000 0.100000 Mo
0.100000 0.900000 0.300000 Mo
0.100000 0.900000 0.500000 Mo
0.100000 0.900000 0.700000 Mo
0.100000 0.900000 0.900000 Mo
0.300000 0.100000 0.100000 Mo
0.300000 0.100000 0.300000 Mo
0.300000 0.100000 0.500000 Mo
0.300000 0.100000 0.700000 Mo
0.300000 0.100000 0.900000 Mo
0.300000 0.300000 0.100000 Mo
0.300000 0.300000 0.300000 Mo
0.300000 0.300000 0.500000 Mo
0.300000 0.300000 0.700000 Mo
0.300000 0.300000 0.900000 Mo
0.300000 0.500000 0.100000 Mo
0.300000 0.500000 0.300000 Mo
0.300000 0.500000 0.500000 Mo
0.300000 0.500000 0.700000 Mo
0.300000 0.500000 0.900000 Mo
0.300000 0.700000 0.100000 Mo
0.300000 0.700000 0.300000 Mo
0.300000 0.700000 0.500000 Mo
0.300000 0.700000 0.700000 Mo
0.300000 0.700000 0.900000 Mo
0.300000 0.900000 0.100000 Mo
0.300000 0.900000 0.300000 Mo
0.300000 0.900000 0.500000 Mo
0.300000 0.900000 0.700000 Mo
0.300000 0.900000 0.900000 Mo
0.500000 0.100000 0.100000 Mo
0.500000 0.100000 0.300000 Mo
0.500000 0.100000 0.500000 Mo
0.500000 0.100000 0.700000 Mo
0.500000 0.100000 0.900000 Mo
0.500000 0.300000 0.100000 Mo
0.500000 0.300000 0.300000 Mo
0.500000 0.300000 0.500000 Mo
0.500000 0.300000 0.700000 Mo
0.500000 0.300000 0.900000 Mo
0.500000 0.500000 0.100000 Mo
0.500000 0.500000 0.300000 Mo
0.500000 0.500000 0.500000 Mo
0.500000 0.500000 0.700000 Mo
0.500000 0.500000 0.900000 Mo
0.500000 0.700000 0.100000 Mo
0.500000 0.700000 0.300000 Mo
0.500000 0.700000 0.500000 Mo
0.500000 0.700000 0.700000 Mo
0.500000 0.700000 0.900000 Mo
0.500000 0.900000 0.100000 Mo
0.500000 0.900000 0.300000 Mo
0.500000 0.900000 0.500000 Mo
0.500000 0.900000 0.700000 Mo
0.500000 0.900000 0.900000 Mo
0.700000 0.100000 0.100000 Mo
0.700000 0.100000 0.300000 Mo
0.700000 0.100000 0.500000 Mo
0.700000 0.100000 0.700000 Mo
0.700000 0.100000 0.900000 Mo
0.700000 0.300000 0.100000 Mo
0.700000 0.300000 0.300000 Mo
0.700000 0.300000 0.500000 Mo
0.700000 0.300000 0.700000 Mo
0.700000 0.300000 0.900000 Mo
0.700000 0.500000 0.100000 Mo
0.700000 0.500000 0.300000 Mo
0.700000 0.500000 0.500000 Mo
0.700000 0.500000 0.700000 Mo
0.700000 0.500000 0.900000 Mo
0.700000 0.700000 0.100000 Mo
0.700000 0.700000 0.300000 Mo
0.700000 0.700000 0.500000 Mo
0.700000 0.700000 0.700000 Mo
0.700000 0.700000 0.900000 Mo
0.700000 0.900000 0.100000 Mo
0.700000 0.900000 0.300000 Mo
0.700000 0.900000 0.500000 Mo
0.700000 0.900000 0.700000 Mo
0.700000 0.900000 0.900000 Mo
0.900000 0.100000 0.100000 Mo
0.900000 0.100000 0.300000 Mo
0.900000 0.100000 0.500000 Mo
0.900000 0.100000 0.700000 Mo
0.900000 0.100000 0.900000 Mo
0.900000 0.300000 0.100000 Mo
0.900000 0.300000 0.300000 Mo
0.900000 0.300000 0.500000 Mo
0.900000 0.300000 0.700000 Mo
0.900000 0.300000 0.900000 Mo
0.900000 0.500000 0.100000 Mo
0.900000 0.500000 0.300000 Mo
0.900000 0.500000 0.500000 Mo
0.900000 0.500000 0.700000 Mo
0.900000 0.500000 0.900000 Mo
0.900000 0.700000 0.100000 Mo
0.900000 0.700000 0.300000 Mo
0.900000 0.700000 0.500000 Mo
0.900000 0.700000 0.700000 Mo
0.900000 0.700000 0.900000 Mo
0.900000 0.900000 0.100000 Mo
0.900000 0.900000 0.300000 Mo
0.900000 0.900000 0.500000 Mo
0.900000 0.900000 0.700000 Mo
0.900000 0.900000 0.900000 Mo

0.000000 0.000000 0.000000
0.000000 0.000000 0.000000
0.000000 0.000000 0.000000
0.000000 0.000000 0.000000
0.000000 0.000000 0.000000
0.000000 0.000000 0.000000
0.000000 0.000000 0.000000
0.000000 0.000000 0.000000
0.000000 0.000000 0.000000
0.000000 0.000000 0.000000
0.000000 0.000000 0.000000
0.000000 0.000000 0.000000
0.000000 0.000000 0.000000
0.000000 0.000000 0.000000
0.000000 0.000000 0.000000
0.000000 0.000000 0.000000
0.000000 0.000000 0.000000
0.000000 0.000000 0.000000
0.000000 0.000000 0.000000
0.000000 0.000000 0.000000
0.000000 0.000000 0.000000
0.000000 0.000000 0.000000
0.000000 0.000000 0.000000
0.000000 0.000000 0.000000
0.000000 0.000000 0.000000
0.000000 0.000000 0.000000
0.000000 0.000000 0.000000
0.000000 0.000000 0.000000
0.000000 0.000000 0.000000
0.000000 0.000000 0.000000
0.000000 0.000000 0.000000
0.000000 0.000000 0.000000
0.000000 0.000000 0.000000
0.000000 0.000000 0.000000
0.000000 0.000000 0.000000
0.000000 0.000000 0.000000
0.000000 0.000000 0.000000
0.000000 0.000000 0.000000
0.000000 0.000000 0.000000
0.000000 0.000000 0.000000
0.000000 0.000000 0.000000
0.000000 0.000000 0.000000
0.000000 0.000000 0.000000
0.000000 0.000000 0.000000
0.000000 0.000000 0.000000
0.000000 0.000000 0.000000
0.000000 0.000000 0.000000
0.000000 0.000000 0.000000
0.000000 0.000000 0.000000
0.000000 0.000000 0.000000
0.000000 0.000000 0.000000
0.000000 0.000000 0.000000
0.000000 0.000000 0.000000
0.000000 0.000000 0.000000
0.000000 0.000000 0.000000
0.000000 0.000000 0.000000
0.000000 0.000000 0.000000
0.000000 0.000000 0.000000
0.000000 0.000000 0.000000
0.000000 0.000000 0.000000
0.000000 0.000000 0.000000
0.000000 0.000000 0.000000
0.000000 0.000000 0.000000
0.000000 0.000000 0.000000
0.000000 0.000000 0.000000
0.000000 0.000000 0.000000
0.000000 0.000000 0.000000
0.000000 0.000000 0.000000
0.000000 0.000000 0.000000
0.000000 0.000000 0.000000
0.000000 0.000000 0.000000
0.000000 0.000000 0.000000
0.000000 0.000000 0.000000
0.000000 0.000000 0.000000
0.000000 0.000000 0.000000
0.000000 0.000000 0.000000
0.000000 0.000000 0.000000
0.000000 0.000000 0.000000
0.000000 0.000000 0.000000
0.000000 0.000000 0.000000
0.000000 0.000000 0.000000
0.000000 0.000000 0.000000
0.000000 0.000000 0.000000
0.000000 0.000000 0.000000
0.000000 0.000000 0.000000
0.000000 0.000000 0.000000
0.000000 0.000000 0.000000
0.000000 0.000000 0.000000
0.000000 0.000000 0.000000
0.000000 0.000000 0.000000
0.000000 0.000000 0.000000
0.000000 0.000000 0.000000
0.000000 0.000000 0.000000
0.000000 0.000000 0.000000
0.000000 0.000000 0.000000
0.000000 0.000000 0.000000
0.000000 0.000000 0.000000
0.000000 0.000000 0.000000
0.000000 0.000000 0.000000
0.000000 0.000000 0.000000
0.000000 0.000000 0.000000
0.000000 0.000000 0.000000
0.000000 0.000000 0.000000
0.000000 0.000000 0.000000
0.000000 0.000000 0.000000
0.000000 0.000000 0.000000
0.000000 0.000000 0.000000
0.000000 0.000000 0.000000
0.000000 0.000000 0.000000
0.000000 0.000000 0.000000
0.000000 0.000000 0.000000
0.000000 0.000000 0.000000
0.000000 0.000000 0.000000
0.000000 0.000000 0.000000
0.000000 0.000000 0.000000
0.000000 0.000000 0.000000
0.000000 0.000000 0.000000
0.000000 0.000000 0.000000
0.000000 0.000000 0.000000
0.000000 0.000000 0.000000
0.000000 0.000000 0.000000
0.000000 0.000000 0.000000
0.000000 0.000000 0.000000
0.000000 0.000000 0.000000
0.000000 0.000000 0.000000
0.000000 0.000000 0.000000
0.000000 0.000000 0.000000
0.000000 0.000000 0.000000
0.000000 0.000000 0.000000
0.000000 0.000000 0.000000
0.000000 0.000000 0.000000
0.000000 0.000000 0.000000
0.000000 0.000000 0.000000
0.000000 0.000000 0.000000
0.000000 0.000000 0.000000
0.000000 0.000000 0.000000
0.000000 0.000000 0.000000
0.000000 0.000000 0.000000
0.000000 0.000000 0.000000
0.000000 0.000000 0.000000
0.000000 0.000000 0.000000
0.000000 0.000000 0.000000
0.000000 0.000000 0.000000
0.000000 0.000000 0.000000
0.000000 0.000000 0.000000
0.000000 0.000000 0.000000
0.000000 0.000000 0.000000
0.000000 0.000000 0.000000
0.000000 0.000000 0.000000
0.000000 0.000000 0.000000
0.000000 0.000000 0.000000
0.000000 0.000000 0.000000
0.000000 0.000000 0.000000
0.000000 0.000000 0.000000
0.000000 0.000000 0.000000
0.000000 0.000000 0.000000
0.000000 0.000000 0.000000
0.000000 0.000000 0.000000
0.000000 0.000000 0.000000
0.000000 0.000000 0.000000
0.000000 0.000000 0.000000
0.000000 0.000000 0.000000
0.000000 0.000000 0.000000
0.000000 0.000000 0.000000
0.000000 0.000000 0.000000
0.000000 0.000000 0.000000
0.000000 0.000000 0.000000
0.000000 0.000000 0.000000
0.000000 0.000000 0.000000
0.000000 0.000000 0.000000
0.000000 0.000000 0.000000
0.000000 0.000000 0.000000
0.000000 0.000000 0.000000
0.000000 0.000000 0.000000
0.000000 0.000000 0.000000
0.000000 0.000000 0.000000
0.000000 0.000000 0.000000
0.000000 0.000000 0.000000
0.000000 0.000000 0.000000
0.000000 0.000000 0.000000
0.000000 0.000000 0.000000
0.000000 0.000000 0.000000
0.000000 0.000000 0.000000
0.000000 0.000000 0.000000
0.000000 0.000000 0.000000
0.000000 0.000000 0.000000
0.000000 0.000000 0.000000
0.000000 0.000000 0.000000
0.000000 0.000000 0.000000
0.000000 0.000000 0.000000
0.000000 0.000000 0.000000
0.000000 0.000000 0.000000
0.000000 0.000000 0.000000
0.000000 0.000000 0.000000
0.000000 0.000000 0.000000
0.000000 0.000000 0.000000
0.000000 0.000000 0.000000
0.000000 0.000000 0.000000
0.000000 0.000000 0.000000
0.000000 0.000000 0.000000
0.000000 0.000000 0.000000
0.000000 0.000000 0.000000
0.000000 0.000000 0.000000
0.000000 0.000000 0.000000
0.000000 0.000000 0.000000
0.000000 0.000000 0.000000
0.000000 0.000000 0.000000
0.000000 0.000000 0.000000
0.000000 0.000000 0.000000
0.000000 0.000000 0.000000
0.000000 0.000000 0.000000
0.000000 0.000000 0.000000
0.000000 0.000000 0.000000
0.000000 0.000000 0.000000
0.000000 0.000000 0.000000
0.000000 0.000000 0.000000
0.000000 0.000000 0.000000
0.000000 0.000000 0.000000
0.000000 0.000000 0.000000
0.000000 0.000000 0.000000
0.000000 0.000000 0.000000
0.000000 0.000000 0.000000
0.000000 0.000000 0.000000
0.000000 0.000000 0.000000
0.000000 0.000000 0.000000
0.000000 0.000000 0.000000
0.000000 0.000000 0.000000
0.000000 0.000000 0.000000
0.000000 0.000000 0.000000
0.000000 0.000000 0.000000
0.000000 0.000000 0.000000
0.000000 0.000000 0.000000
0.000000 0.000000 0.000000
0.000000 0.000000 0.000000
0.000000 0.000000 0.000000
0.000000 0.000000 0.000000
0.000000 0.000000 0.000000
0.000000 0.000000 0.000000
0.000000 0.000000 0.000000
0.000000 0.000000 0.000000
0.000000 0.000000 0.000000
0.000000 0.000000 0.000000
0.000000 0.000000 0.000000
0.000000 0.000000 0.000000
0.000000 0.000000 0.000000
0.000000 0.000000 0.000000
0.000000 0.000000 0.000000
0.000000 0.000000 0.000000
0.000000 0.000000 0.000000
0.000000 0.000000 0.000000
